c This is a random SAT instance with 10 variables and 50 clauses
p cnf 10 50
-7 3 6 -2 -8 0
1 -2 -10 -6 -7 -5 0
10 -5 -6 8 0
-2 -5 -10 -3 -9 0
-9 -2 -7 5 -1 0
1 5 7 6 0
-7 -2 0
-5 -2 9 -6 -1 0
3 -9 5 1 -4 0
-5 7 -6 1 9 2 0
-9 -5 0
-9 1 -7 0
-3 -2 4 6 0
2 6 3 0
-10 8 7 -5 -3 -2 0
-7 8 4 0
6 3 -1 0
9 -6 -5 -1 -3 -7 0
-1 10 -8 7 0
-10 8 0
5 9 0
9 -1 10 4 8 7 0
5 2 1 0
-1 5 -10 -9 3 -7 0
8 7 -6 4 -2 0
-7 -5 -10 -1 2 0
5 3 10 -4 0
-6 -1 0
9 3 -4 2 10 -8 0
-2 4 1 5 8 -3 0
9 -4 -3 -2 -7 8 0
-1 -9 4 10 -5 -2 0
7 10 4 -9 0
-5 2 -1 0
6 -7 1 -3 2 -10 0
1 7 -6 9 5 0
6 9 5 0
7 10 -3 6 2 -8 0
-4 -6 -7 -2 0
1 -6 8 0
-3 -10 -5 -8 0
-4 9 3 -7 8 0
4 -8 9 1 -2 0
-7 -2 -1 3 0
6 -2 10 -4 -5 0
6 -7 -9 0
2 8 0
5 6 9 1 0
1 2 -9 6 0
7 -5 -6 0